#######################
Slurm job id: 17497813_342
Running on machine: p47
Running cmd: /nfs/shared/static-builds/gurobi1202 SOFTMEMLIMIT=125 MIPFocus=3 Presolve=2 TimeLimit=300 seed=1 /nfs/models/miplib2010/k16x240.mps.bz2
#######################
Set parameter TimeLimit to value 300
Set parameter SoftMemLimit to value 125
Set parameter MIPFocus to value 3
Set parameter LogFile to value 1202-MIPFocus3-Presolve2-TimeLimit300-k16x240-1.log
Set parameter Presolve to value 2
Set parameter Seed to value 1
Using license file /opt/gurobi/gurobi.lic

Gurobi Optimizer version 12.0.2 build v12.0.2rc0 (linux64 - "Ubuntu 22.04.4 LTS")
Copyright (c) 2025, Gurobi Optimization, LLC

Read MPS format model from file /nfs/models/miplib2010/k16x240.mps.bz2
Reading time = 0.00 seconds
k16x240: 256 rows, 480 columns, 960 nonzeros

Using Gurobi shared library /nfs/shared/static-builds/gurobi1202

CPU model: Intel(R) Xeon(R) E-2388G CPU @ 3.20GHz, instruction set [SSE2|AVX|AVX2|AVX512]
Thread count: 8 physical cores, 16 logical processors, using up to 16 threads

Non-default parameters:
TimeLimit  300
SoftMemLimit  125
MIPFocus  3
Presolve  2
Seed  1

Optimize a model with 256 rows, 480 columns and 960 nonzeros
Model fingerprint: 0x4e80885f
Variable types: 240 continuous, 240 integer (240 binary)
Coefficient statistics:
  Matrix range     [1e+00, 1e+03]
  Objective range  [1e+00, 1e+03]
  Bounds range     [1e+00, 1e+03]
  RHS range        [4e+00, 4e+02]
Found heuristic solution: objective 18783.000000
Presolve time: 0.00s
Presolved: 256 rows, 480 columns, 960 nonzeros
Variable types: 240 continuous, 240 integer (240 binary)
Root relaxation presolve removed 241 rows and 240 columns
Root relaxation presolved: 15 rows, 240 columns, 450 nonzeros


Root relaxation: objective 2.769838e+03, 16 iterations, 0.00 seconds (0.00 work units)

    Nodes    |    Current Node    |     Objective Bounds      |     Work
 Expl Unexpl |  Obj  Depth IntInf | Incumbent    BestBd   Gap | It/Node Time

     0     0 2769.83800    0   14 18783.0000 2769.83800  85.3%     -    0s
H    0     0                    11359.000000 2769.83800  75.6%     -    0s
H    0     0                    11262.000000 2769.83800  75.4%     -    0s
H    0     0                    11248.000000 2769.83800  75.4%     -    0s
H    0     0                    11056.000000 2769.83800  74.9%     -    0s
H    0     0                    11023.000000 8116.87580  26.4%     -    0s
H    0     0                    10914.000000 8116.87580  25.6%     -    0s
H    0     0                    10877.000000 8116.87580  25.4%     -    0s
H    0     0                    10870.000000 8116.87580  25.3%     -    0s
     0     0 8532.58268    0   26 10870.0000 8532.58268  21.5%     -    0s
H    0     0                    10836.000000 8532.58268  21.3%     -    0s
H    0     0                    10746.000000 8532.58268  20.6%     -    0s
     0     0 8751.29955    0   23 10746.0000 8751.29955  18.6%     -    0s
     0     0 8751.29955    0   19 10746.0000 8751.29955  18.6%     -    0s
     0     0 8810.95744    0   21 10746.0000 8810.95744  18.0%     -    0s
     0     0 8810.95744    0   23 10746.0000 8810.95744  18.0%     -    0s
     0     0 8810.95744    0   24 10746.0000 8810.95744  18.0%     -    0s
     0     0 9046.36529    0   37 10746.0000 9046.36529  15.8%     -    0s
     0     0 9046.36529    0   29 10746.0000 9046.36529  15.8%     -    0s
     0     0 9061.22394    0   38 10746.0000 9061.22394  15.7%     -    0s
     0     0 9063.06973    0   38 10746.0000 9063.06973  15.7%     -    0s
H    0     0                    10674.000000 9065.40645  15.1%     -    0s
     0     2 9065.40645    0   38 10674.0000 9065.40645  15.1%     -    0s
  4515  3188     cutoff   26      10674.0000 10267.0337  3.81%  86.4    5s
 16320  8174     cutoff   30      10674.0000 10494.6960  1.68%  60.8   10s

Cutting planes:
  Gomory: 1
  Lift-and-project: 9
  Cover: 2
  Implied bound: 4
  Dual implied bound: 5
  MIR: 140
  Flow cover: 492
  Flow path: 41
  Zero half: 34
  Network: 23
  Relax-and-lift: 5

Explored 40693 nodes (1534275 simplex iterations) in 13.83 seconds (20.32 work units)
Thread count was 16 (of 16 available processors)

Solution count 10: 10674 10746 10836 ... 11262

Optimal solution found (tolerance 1.00e-04)
Best objective 1.067400000000e+04, best bound 1.067300000000e+04, gap 0.0094%
